%SAT
CapT = 1709.0;
CapH = 643.0;
CapN = 2540.0;
Ct = 25.0;
Ch = 23.0;
Cn = 0.1;
n = 15;
S = 5;

dsi = [| 700.0,500.0,600.0,800.0,750.0,628.0,830.0, 300.2,434.23,230.43,843.2,231.42,623.2,123.4,100.0 | 
	     150.0,434.0,344.0,323.0,235.0,321.0,345.3, 730.0,540.0,650.0,860.0,757.0,658.0,837.0,200.0 | 
	     150.0,434.0,344.0,323.0,235.0,321.0,345.3, 730.0,540.0,650.0,860.0,757.0,658.0,837.0,300.0 | 
	     150.0,434.0,344.0,323.0,235.0,321.0,345.3, 730.0,540.0,650.0,860.0,757.0,658.0,837.0,400.0 | 
	     220.0,648.0,789.0,698.0,756.0,912.0,875.0, 700.0,500.0,600.0,800.0,750.0,628.0,830.0,500.0 |];